/*********************************************
 * OPL 12.6.0.0 Data
 * Author: Adrian Rodriguez Bazaga, Pau Rodriguez Esmerats
 * Creation Date: 06/12/2017 at 23:03:09
 *********************************************/

nNurses=287;
maxConsec=2;
maxPresence=7;
maxHours=5;
minHours=1;
hours=24;
demand= [45 53 59 66 53 59 66 56 50 26 8 7 13 12 14 9 8 7 6 5 40 67 28 54  ];
